result&benchmarks/Data/Ex1/verify/Output/sum04-1_process_dc_iter1Output/Counterexample.3.smt2
(set-info :source |printed by MathSAT|)
(declare-fun |main::local_18@3| () (_ BitVec 32))
(declare-fun |main::local_14@3| () (_ BitVec 32))
(declare-fun |main::local_18@4| () (_ BitVec 32))
(declare-fun |main::local_14@4| () (_ BitVec 32))
(declare-fun |main::local_18@5| () (_ BitVec 32))
(declare-fun |main::local_14@5| () (_ BitVec 32))
(declare-fun |main::local_18@6| () (_ BitVec 32))
(declare-fun |main::local_14@6| () (_ BitVec 32))
(declare-fun |main::local_14@7| () (_ BitVec 32))
(declare-fun |main::local_14@8| () (_ BitVec 32))
(declare-fun |main::local_14@9| () (_ BitVec 32))
(declare-fun |main::local_14@10| () (_ BitVec 32))
(declare-fun |main::local_14@11| () (_ BitVec 32))
(assert (let ((.def_17 (bvslt |main::local_14@3| (_ bv9 32))))(let ((.def_14 (= |main::local_14@3| (_ bv1 32))))(let ((.def_11 (= |main::local_18@3| (_ bv0 32))))(let ((.def_15 (and .def_11 .def_14)))(let ((.def_483 (and .def_15 .def_17)))(let ((.def_57 (bvslt |main::local_14@3| (_ bv4 32))))(let ((.def_484 (and .def_57 .def_483)))(let ((.def_64 (bvadd (_ bv2 32) |main::local_18@3|)))(let ((.def_66 (= .def_64 |main::local_18@4|)))(let ((.def_485 (and .def_66 .def_484)))(let ((.def_72 (bvadd (_ bv1 32) |main::local_14@3|)))(let ((.def_74 (= .def_72 |main::local_14@4|)))(let ((.def_486 (and .def_74 .def_485)))(let ((.def_76 (bvslt |main::local_14@4| (_ bv9 32))))(let ((.def_487 (and .def_76 .def_486)))(let ((.def_94 (bvslt |main::local_14@4| (_ bv4 32))))(let ((.def_488 (and .def_94 .def_487)))(let ((.def_100 (bvadd (_ bv2 32) |main::local_18@4|)))(let ((.def_102 (= .def_100 |main::local_18@5|)))(let ((.def_489 (and .def_102 .def_488)))(let ((.def_108 (bvadd (_ bv1 32) |main::local_14@4|)))(let ((.def_110 (= .def_108 |main::local_14@5|)))(let ((.def_490 (and .def_110 .def_489)))(let ((.def_112 (bvslt |main::local_14@5| (_ bv9 32))))(let ((.def_491 (and .def_112 .def_490)))(let ((.def_146 (bvslt |main::local_14@5| (_ bv4 32))))(let ((.def_492 (and .def_146 .def_491)))(let ((.def_152 (bvadd (_ bv2 32) |main::local_18@5|)))(let ((.def_154 (= .def_152 |main::local_18@6|)))(let ((.def_493 (and .def_154 .def_492)))(let ((.def_160 (bvadd (_ bv1 32) |main::local_14@5|)))(let ((.def_162 (= .def_160 |main::local_14@6|)))(let ((.def_494 (and .def_162 .def_493)))(let ((.def_164 (bvslt |main::local_14@6| (_ bv9 32))))(let ((.def_495 (and .def_164 .def_494)))(let ((.def_183 (bvslt |main::local_14@6| (_ bv4 32))))(let ((.def_186 (not .def_183)))(let ((.def_496 (and .def_186 .def_495)))(let ((.def_197 (bvadd (_ bv1 32) |main::local_14@6|)))(let ((.def_199 (= .def_197 |main::local_14@7|)))(let ((.def_497 (and .def_199 .def_496)))(let ((.def_201 (bvslt |main::local_14@7| (_ bv9 32))))(let ((.def_498 (and .def_201 .def_497)))(let ((.def_221 (bvslt |main::local_14@7| (_ bv4 32))))(let ((.def_224 (not .def_221)))(let ((.def_499 (and .def_224 .def_498)))(let ((.def_235 (bvadd (_ bv1 32) |main::local_14@7|)))(let ((.def_237 (= .def_235 |main::local_14@8|)))(let ((.def_500 (and .def_237 .def_499)))(let ((.def_239 (bvslt |main::local_14@8| (_ bv9 32))))(let ((.def_501 (and .def_239 .def_500)))(let ((.def_258 (bvslt |main::local_14@8| (_ bv4 32))))(let ((.def_261 (not .def_258)))(let ((.def_502 (and .def_261 .def_501)))(let ((.def_272 (bvadd (_ bv1 32) |main::local_14@8|)))(let ((.def_274 (= .def_272 |main::local_14@9|)))(let ((.def_503 (and .def_274 .def_502)))(let ((.def_276 (bvslt |main::local_14@9| (_ bv9 32))))(let ((.def_504 (and .def_276 .def_503)))(let ((.def_296 (bvslt |main::local_14@9| (_ bv4 32))))(let ((.def_299 (not .def_296)))(let ((.def_505 (and .def_299 .def_504)))(let ((.def_310 (bvadd (_ bv1 32) |main::local_14@9|)))(let ((.def_312 (= .def_310 |main::local_14@10|)))(let ((.def_506 (and .def_312 .def_505)))(let ((.def_314 (bvslt |main::local_14@10| (_ bv9 32))))(let ((.def_507 (and .def_314 .def_506)))(let ((.def_399 (bvslt |main::local_14@10| (_ bv4 32))))(let ((.def_402 (not .def_399)))(let ((.def_508 (and .def_402 .def_507)))(let ((.def_413 (bvadd (_ bv1 32) |main::local_14@10|)))(let ((.def_415 (= .def_413 |main::local_14@11|)))(let ((.def_509 (and .def_415 .def_508)))(let ((.def_417 (bvslt |main::local_14@11| (_ bv9 32))))(let ((.def_419 (not .def_417)))(let ((.def_510 (and .def_419 .def_509)))(let ((.def_171 (= |main::local_18@6| (_ bv16 32))))(let ((.def_172 (not .def_171)))(let ((.def_511 (and .def_172 .def_510)))(let ((.def_176 (= |main::local_18@6| (_ bv0 32))))(let ((.def_177 (not .def_176)))(let ((.def_512 (and .def_177 .def_511))).def_512)))))))))))))))))))))))))))))))))))))))))))))))))))))))))))))))))))))))))))))))))))