result&benchmarks/Data/Ex1/verify/Output/sum04-1_process_dc_iter1Output/Counterexample.3.txt
none:	N37 -{INIT GLOBAL VARS}-> N67
/usr/include/assert.h, lines 69-71:	N67 -{void __assert_fail(const char *__assertion, const char *__file, unsigned int __line, const char *__function);}-> N68
/usr/include/assert.h, lines 74-76:	N68 -{void __assert_perror_fail(int __errnum, const char *__file, unsigned int __line, const char *__function);}-> N69
/usr/include/assert.h, lines 81-82:	N69 -{void __assert(const char *__assertion, const char *__file, int __line);}-> N70
/usr/lib/gcc/x86_64-linux-gnu/11/include/stddef.h, line 209:	N70 -{typedef unsigned long int size_t;}-> N71
/usr/lib/gcc/x86_64-linux-gnu/11/include/stddef.h, line 321:	N71 -{typedef int wchar_t;}-> N72
/usr/include/stdlib.h, lines 59-63:	N72 -{struct __anon_type_div_t {   int quot;   int rem; } ;}-> N73
/usr/include/stdlib.h, lines 59-63:	N73 -{typedef struct __anon_type_div_t div_t;}-> N74
/usr/include/stdlib.h, lines 67-71:	N74 -{struct __anon_type_ldiv_t {   long int quot;   long int rem; } ;}-> N75
/usr/include/stdlib.h, lines 67-71:	N75 -{typedef struct __anon_type_ldiv_t ldiv_t;}-> N76
/usr/include/stdlib.h, lines 77-81:	N76 -{struct __anon_type_lldiv_t {   long long int quot;   long long int rem; } ;}-> N77
/usr/include/stdlib.h, lines 77-81:	N77 -{typedef struct __anon_type_lldiv_t lldiv_t;}-> N78
/usr/include/stdlib.h, line 98:	N78 -{size_t __ctype_get_mb_cur_max();}-> N79
/usr/include/stdlib.h, lines 102-103:	N79 -{double atof(const char *__nptr);}-> N80
/usr/include/stdlib.h, lines 105-106:	N80 -{int atoi(const char *__nptr);}-> N81
/usr/include/stdlib.h, lines 108-109:	N81 -{long int atol(const char *__nptr);}-> N82
/usr/include/stdlib.h, lines 113-114:	N82 -{long long int atoll(const char *__nptr);}-> N83
/usr/include/stdlib.h, lines 118-120:	N83 -{double strtod(const char *__nptr, char **__endptr);}-> N84
/usr/include/stdlib.h, lines 124-125:	N84 -{float strtof(const char *__nptr, char **__endptr);}-> N85
/usr/include/stdlib.h, lines 127-129:	N85 -{long double strtold(const char *__nptr, char **__endptr);}-> N86
/usr/include/stdlib.h, lines 177-179:	N86 -{long int strtol(const char *__nptr, char **__endptr, int __base);}-> N87
/usr/include/stdlib.h, lines 181-183:	N87 -{unsigned long int strtoul(const char *__nptr, char **__endptr, int __base);}-> N88
/usr/include/stdlib.h, lines 188-190:	N88 -{long long int strtoq(const char *__nptr, char **__endptr, int __base);}-> N89
/usr/include/stdlib.h, lines 193-195:	N89 -{unsigned long long int strtouq(const char *__nptr, char **__endptr, int __base);}-> N90
/usr/include/stdlib.h, lines 201-203:	N90 -{long long int strtoll(const char *__nptr, char **__endptr, int __base);}-> N91
/usr/include/stdlib.h, lines 206-208:	N91 -{unsigned long long int strtoull(const char *__nptr, char **__endptr, int __base);}-> N92
/usr/include/stdlib.h, line 386:	N92 -{char *l64a(long int __n);}-> N93
/usr/include/stdlib.h, lines 389-390:	N93 -{long int a64l(const char *__s);}-> N94
/usr/include/x86_64-linux-gnu/bits/types.h, line 31:	N94 -{typedef unsigned char __u_char;}-> N95
/usr/include/x86_64-linux-gnu/bits/types.h, line 32:	N95 -{typedef unsigned short int __u_short;}-> N96
/usr/include/x86_64-linux-gnu/bits/types.h, line 33:	N96 -{typedef unsigned int __u_int;}-> N97
/usr/include/x86_64-linux-gnu/bits/types.h, line 34:	N97 -{typedef unsigned long int __u_long;}-> N98
/usr/include/x86_64-linux-gnu/bits/types.h, line 37:	N98 -{typedef signed char __int8_t;}-> N99
/usr/include/x86_64-linux-gnu/bits/types.h, line 38:	N99 -{typedef unsigned char __uint8_t;}-> N100
/usr/include/x86_64-linux-gnu/bits/types.h, line 39:	N100 -{typedef signed short int __int16_t;}-> N101
/usr/include/x86_64-linux-gnu/bits/types.h, line 40:	N101 -{typedef unsigned short int __uint16_t;}-> N102
/usr/include/x86_64-linux-gnu/bits/types.h, line 41:	N102 -{typedef signed int __int32_t;}-> N103
/usr/include/x86_64-linux-gnu/bits/types.h, line 42:	N103 -{typedef unsigned int __uint32_t;}-> N104
/usr/include/x86_64-linux-gnu/bits/types.h, line 44:	N104 -{typedef signed long int __int64_t;}-> N105
/usr/include/x86_64-linux-gnu/bits/types.h, line 45:	N105 -{typedef unsigned long int __uint64_t;}-> N106
/usr/include/x86_64-linux-gnu/bits/types.h, line 52:	N106 -{typedef __int8_t __int_least8_t;}-> N107
/usr/include/x86_64-linux-gnu/bits/types.h, line 53:	N107 -{typedef __uint8_t __uint_least8_t;}-> N108
/usr/include/x86_64-linux-gnu/bits/types.h, line 54:	N108 -{typedef __int16_t __int_least16_t;}-> N109
/usr/include/x86_64-linux-gnu/bits/types.h, line 55:	N109 -{typedef __uint16_t __uint_least16_t;}-> N110
/usr/include/x86_64-linux-gnu/bits/types.h, line 56:	N110 -{typedef __int32_t __int_least32_t;}-> N111
/usr/include/x86_64-linux-gnu/bits/types.h, line 57:	N111 -{typedef __uint32_t __uint_least32_t;}-> N112
/usr/include/x86_64-linux-gnu/bits/types.h, line 58:	N112 -{typedef __int64_t __int_least64_t;}-> N113
/usr/include/x86_64-linux-gnu/bits/types.h, line 59:	N113 -{typedef __uint64_t __uint_least64_t;}-> N114
/usr/include/x86_64-linux-gnu/bits/types.h, line 63:	N114 -{typedef long int __quad_t;}-> N115
/usr/include/x86_64-linux-gnu/bits/types.h, line 64:	N115 -{typedef unsigned long int __u_quad_t;}-> N116
/usr/include/x86_64-linux-gnu/bits/types.h, line 72:	N116 -{typedef long int __intmax_t;}-> N117
/usr/include/x86_64-linux-gnu/bits/types.h, line 73:	N117 -{typedef unsigned long int __uintmax_t;}-> N118
/usr/include/x86_64-linux-gnu/bits/types.h, line 145:	N118 -{typedef unsigned long int __dev_t;}-> N119
/usr/include/x86_64-linux-gnu/bits/types.h, line 146:	N119 -{typedef unsigned int __uid_t;}-> N120
/usr/include/x86_64-linux-gnu/bits/types.h, line 147:	N120 -{typedef unsigned int __gid_t;}-> N121
/usr/include/x86_64-linux-gnu/bits/types.h, line 148:	N121 -{typedef unsigned long int __ino_t;}-> N122
/usr/include/x86_64-linux-gnu/bits/types.h, line 149:	N122 -{typedef unsigned long int __ino64_t;}-> N123
/usr/include/x86_64-linux-gnu/bits/types.h, line 150:	N123 -{typedef unsigned int __mode_t;}-> N124
/usr/include/x86_64-linux-gnu/bits/types.h, line 151:	N124 -{typedef unsigned long int __nlink_t;}-> N125
/usr/include/x86_64-linux-gnu/bits/types.h, line 152:	N125 -{typedef long int __off_t;}-> N126
/usr/include/x86_64-linux-gnu/bits/types.h, line 153:	N126 -{typedef long int __off64_t;}-> N127
/usr/include/x86_64-linux-gnu/bits/types.h, line 154:	N127 -{typedef int __pid_t;}-> N128
/usr/include/x86_64-linux-gnu/bits/types.h, line 155:	N128 -{struct __anon_type___fsid_t {   int __val[2]; } ;}-> N129
/usr/include/x86_64-linux-gnu/bits/types.h, line 155:	N129 -{typedef struct __anon_type___fsid_t __fsid_t;}-> N130
/usr/include/x86_64-linux-gnu/bits/types.h, line 156:	N130 -{typedef long int __clock_t;}-> N131
/usr/include/x86_64-linux-gnu/bits/types.h, line 157:	N131 -{typedef unsigned long int __rlim_t;}-> N132
/usr/include/x86_64-linux-gnu/bits/types.h, line 158:	N132 -{typedef unsigned long int __rlim64_t;}-> N133
/usr/include/x86_64-linux-gnu/bits/types.h, line 159:	N133 -{typedef unsigned int __id_t;}-> N134
/usr/include/x86_64-linux-gnu/bits/types.h, line 160:	N134 -{typedef long int __time_t;}-> N135
/usr/include/x86_64-linux-gnu/bits/types.h, line 161:	N135 -{typedef unsigned int __useconds_t;}-> N136
/usr/include/x86_64-linux-gnu/bits/types.h, line 162:	N136 -{typedef long int __suseconds_t;}-> N137
/usr/include/x86_64-linux-gnu/bits/types.h, line 163:	N137 -{typedef long int __suseconds64_t;}-> N138
/usr/include/x86_64-linux-gnu/bits/types.h, line 165:	N138 -{typedef int __daddr_t;}-> N139
/usr/include/x86_64-linux-gnu/bits/types.h, line 166:	N139 -{typedef int __key_t;}-> N140
/usr/include/x86_64-linux-gnu/bits/types.h, line 169:	N140 -{typedef int __clockid_t;}-> N141
/usr/include/x86_64-linux-gnu/bits/types.h, line 172:	N141 -{typedef void *__timer_t;}-> N142
/usr/include/x86_64-linux-gnu/bits/types.h, line 175:	N142 -{typedef long int __blksize_t;}-> N143
/usr/include/x86_64-linux-gnu/bits/types.h, line 180:	N143 -{typedef long int __blkcnt_t;}-> N144
/usr/include/x86_64-linux-gnu/bits/types.h, line 181:	N144 -{typedef long int __blkcnt64_t;}-> N145
/usr/include/x86_64-linux-gnu/bits/types.h, line 184:	N145 -{typedef unsigned long int __fsblkcnt_t;}-> N146
/usr/include/x86_64-linux-gnu/bits/types.h, line 185:	N146 -{typedef unsigned long int __fsblkcnt64_t;}-> N147
/usr/include/x86_64-linux-gnu/bits/types.h, line 188:	N147 -{typedef unsigned long int __fsfilcnt_t;}-> N148
/usr/include/x86_64-linux-gnu/bits/types.h, line 189:	N148 -{typedef unsigned long int __fsfilcnt64_t;}-> N149
/usr/include/x86_64-linux-gnu/bits/types.h, line 192:	N149 -{typedef long int __fsword_t;}-> N150
/usr/include/x86_64-linux-gnu/bits/types.h, line 194:	N150 -{typedef long int __ssize_t;}-> N151
/usr/include/x86_64-linux-gnu/bits/types.h, line 197:	N151 -{typedef long int __syscall_slong_t;}-> N152
/usr/include/x86_64-linux-gnu/bits/types.h, line 199:	N152 -{typedef unsigned long int __syscall_ulong_t;}-> N153
/usr/include/x86_64-linux-gnu/bits/types.h, line 203:	N153 -{typedef __off64_t __loff_t;}-> N154
/usr/include/x86_64-linux-gnu/bits/types.h, line 204:	N154 -{typedef char *__caddr_t;}-> N155
/usr/include/x86_64-linux-gnu/bits/types.h, line 207:	N155 -{typedef long int __intptr_t;}-> N156
/usr/include/x86_64-linux-gnu/bits/types.h, line 210:	N156 -{typedef unsigned int __socklen_t;}-> N157
/usr/include/x86_64-linux-gnu/bits/types.h, line 215:	N157 -{typedef int __sig_atomic_t;}-> N158
/usr/include/x86_64-linux-gnu/sys/types.h, line 33:	N158 -{typedef __u_char u_char;}-> N159
/usr/include/x86_64-linux-gnu/sys/types.h, line 34:	N159 -{typedef __u_short u_short;}-> N160
/usr/include/x86_64-linux-gnu/sys/types.h, line 35:	N160 -{typedef __u_int u_int;}-> N161
/usr/include/x86_64-linux-gnu/sys/types.h, line 36:	N161 -{typedef __u_long u_long;}-> N162
/usr/include/x86_64-linux-gnu/sys/types.h, line 37:	N162 -{typedef __quad_t quad_t;}-> N163
/usr/include/x86_64-linux-gnu/sys/types.h, line 38:	N163 -{typedef __u_quad_t u_quad_t;}-> N164
/usr/include/x86_64-linux-gnu/sys/types.h, line 39:	N164 -{typedef __fsid_t fsid_t;}-> N165
/usr/include/x86_64-linux-gnu/sys/types.h, line 42:	N165 -{typedef __loff_t loff_t;}-> N166
/usr/include/x86_64-linux-gnu/sys/types.h, line 47:	N166 -{typedef __ino_t ino_t;}-> N167
/usr/include/x86_64-linux-gnu/sys/types.h, line 59:	N167 -{typedef __dev_t dev_t;}-> N168
/usr/include/x86_64-linux-gnu/sys/types.h, line 64:	N168 -{typedef __gid_t gid_t;}-> N169
/usr/include/x86_64-linux-gnu/sys/types.h, line 69:	N169 -{typedef __mode_t mode_t;}-> N170
/usr/include/x86_64-linux-gnu/sys/types.h, line 74:	N170 -{typedef __nlink_t nlink_t;}-> N171
/usr/include/x86_64-linux-gnu/sys/types.h, line 79:	N171 -{typedef __uid_t uid_t;}-> N172
/usr/include/x86_64-linux-gnu/sys/types.h, line 85:	N172 -{typedef __off_t off_t;}-> N173
/usr/include/x86_64-linux-gnu/sys/types.h, line 97:	N173 -{typedef __pid_t pid_t;}-> N174
/usr/include/x86_64-linux-gnu/sys/types.h, line 103:	N174 -{typedef __id_t id_t;}-> N175
/usr/include/x86_64-linux-gnu/sys/types.h, line 108:	N175 -{typedef __ssize_t ssize_t;}-> N176
/usr/include/x86_64-linux-gnu/sys/types.h, line 114:	N176 -{typedef __daddr_t daddr_t;}-> N177
/usr/include/x86_64-linux-gnu/sys/types.h, line 115:	N177 -{typedef __caddr_t caddr_t;}-> N178
/usr/include/x86_64-linux-gnu/sys/types.h, line 121:	N178 -{typedef __key_t key_t;}-> N179
/usr/include/x86_64-linux-gnu/bits/types/clock_t.h, line 7:	N179 -{typedef __clock_t clock_t;}-> N180
/usr/include/x86_64-linux-gnu/bits/types/clockid_t.h, line 7:	N180 -{typedef __clockid_t clockid_t;}-> N181
/usr/include/x86_64-linux-gnu/bits/types/time_t.h, line 10:	N181 -{typedef __time_t time_t;}-> N182
/usr/include/x86_64-linux-gnu/bits/types/timer_t.h, line 7:	N182 -{typedef __timer_t timer_t;}-> N183
/usr/include/x86_64-linux-gnu/sys/types.h, line 148:	N183 -{typedef unsigned long int ulong;}-> N184
/usr/include/x86_64-linux-gnu/sys/types.h, line 149:	N184 -{typedef unsigned short int ushort;}-> N185
/usr/include/x86_64-linux-gnu/sys/types.h, line 150:	N185 -{typedef unsigned int uint;}-> N186
/usr/include/x86_64-linux-gnu/bits/stdint-intn.h, line 24:	N186 -{typedef __int8_t int8_t;}-> N187
/usr/include/x86_64-linux-gnu/bits/stdint-intn.h, line 25:	N187 -{typedef __int16_t int16_t;}-> N188
/usr/include/x86_64-linux-gnu/bits/stdint-intn.h, line 26:	N188 -{typedef __int32_t int32_t;}-> N189
/usr/include/x86_64-linux-gnu/bits/stdint-intn.h, line 27:	N189 -{typedef __int64_t int64_t;}-> N190
/usr/include/x86_64-linux-gnu/sys/types.h, line 158:	N190 -{typedef __uint8_t u_int8_t;}-> N191
/usr/include/x86_64-linux-gnu/sys/types.h, line 159:	N191 -{typedef __uint16_t u_int16_t;}-> N192
/usr/include/x86_64-linux-gnu/sys/types.h, line 160:	N192 -{typedef __uint32_t u_int32_t;}-> N193
/usr/include/x86_64-linux-gnu/sys/types.h, line 161:	N193 -{typedef __uint64_t u_int64_t;}-> N194
/usr/include/x86_64-linux-gnu/sys/types.h, line 164:	N194 -{typedef signed int register_t;}-> N195
/usr/include/x86_64-linux-gnu/bits/byteswap.h, lines 33-41:	N195 -{__uint16_t __bswap_16(__uint16_t __bsx);}-> N196
/usr/include/x86_64-linux-gnu/bits/byteswap.h, lines 48-56:	N196 -{__uint32_t __bswap_32(__uint32_t __bsx);}-> N197
/usr/include/x86_64-linux-gnu/bits/byteswap.h, lines 69-77:	N197 -{__uint64_t __bswap_64(__uint64_t __bsx);}-> N198
/usr/include/x86_64-linux-gnu/bits/uintn-identity.h, lines 32-36:	N198 -{__uint16_t __uint16_identity(__uint16_t __x);}-> N199
/usr/include/x86_64-linux-gnu/bits/uintn-identity.h, lines 38-42:	N199 -{__uint32_t __uint32_identity(__uint32_t __x);}-> N200
/usr/include/x86_64-linux-gnu/bits/uintn-identity.h, lines 44-48:	N200 -{__uint64_t __uint64_identity(__uint64_t __x);}-> N201
/usr/include/x86_64-linux-gnu/bits/types/__sigset_t.h, lines 5-8:	N201 -{struct __anon_type___sigset_t {   unsigned long int __val[32UL]; } ;}-> N202
/usr/include/x86_64-linux-gnu/bits/types/__sigset_t.h, lines 5-8:	N202 -{typedef struct __anon_type___sigset_t __sigset_t;}-> N203
/usr/include/x86_64-linux-gnu/bits/types/sigset_t.h, line 7:	N203 -{typedef __sigset_t sigset_t;}-> N204
/usr/include/x86_64-linux-gnu/bits/types/struct_timeval.h, lines 8-17:	N204 -{struct timeval {   __time_t tv_sec;   __suseconds_t tv_usec; } ;}-> N205
/usr/include/x86_64-linux-gnu/bits/types/struct_timespec.h, lines 11-31:	N205 -{struct timespec {   __time_t tv_sec;   __syscall_slong_t tv_nsec; } ;}-> N206
/usr/include/x86_64-linux-gnu/sys/select.h, line 43:	N206 -{typedef __suseconds_t suseconds_t;}-> N207
/usr/include/x86_64-linux-gnu/sys/select.h, line 49:	N207 -{typedef long int __fd_mask;}-> N208
/usr/include/x86_64-linux-gnu/sys/select.h, lines 59-70:	N208 -{struct __anon_type_fd_set {   __fd_mask __fds_bits[32]; } ;}-> N209
/usr/include/x86_64-linux-gnu/sys/select.h, lines 59-70:	N209 -{typedef struct __anon_type_fd_set fd_set;}-> N210
/usr/include/x86_64-linux-gnu/sys/select.h, line 77:	N210 -{typedef __fd_mask fd_mask;}-> N211
/usr/include/x86_64-linux-gnu/sys/select.h, lines 102-105:	N211 -{int select(int __nfds, fd_set *__readfds, fd_set *__writefds, fd_set *__exceptfds, struct timeval *__timeout);}-> N212
/usr/include/x86_64-linux-gnu/sys/select.h, lines 127-131:	N212 -{int pselect(int __nfds, fd_set *__readfds, fd_set *__writefds, fd_set *__exceptfds, const struct timespec *__timeout, const __sigset_t *__sigmask);}-> N213
/usr/include/x86_64-linux-gnu/sys/types.h, line 185:	N213 -{typedef __blksize_t blksize_t;}-> N214
/usr/include/x86_64-linux-gnu/sys/types.h, line 192:	N214 -{typedef __blkcnt_t blkcnt_t;}-> N215
/usr/include/x86_64-linux-gnu/sys/types.h, line 196:	N215 -{typedef __fsblkcnt_t fsblkcnt_t;}-> N216
/usr/include/x86_64-linux-gnu/sys/types.h, line 200:	N216 -{typedef __fsfilcnt_t fsfilcnt_t;}-> N217
/usr/include/x86_64-linux-gnu/bits/atomic_wide_counter.h, lines 28-32:	N217 -{struct __anon_type_0 {   unsigned int __low;   unsigned int __high; } ;}-> N218
/usr/include/x86_64-linux-gnu/bits/atomic_wide_counter.h, lines 25-33:	N218 -{union __anon_type___atomic_wide_counter {   unsigned long long int __value64;   struct __anon_type_0 __value32; } ;}-> N219
/usr/include/x86_64-linux-gnu/bits/atomic_wide_counter.h, lines 25-33:	N219 -{typedef union __anon_type___atomic_wide_counter __atomic_wide_counter;}-> N220
/usr/include/x86_64-linux-gnu/bits/thread-shared-types.h, lines 51-55:	N220 -{struct __pthread_internal_list {   struct __pthread_internal_list *__prev;   struct __pthread_internal_list *__next; } ;}-> N221
/usr/include/x86_64-linux-gnu/bits/thread-shared-types.h, lines 51-55:	N221 -{typedef struct __pthread_internal_list __pthread_list_t;}-> N222
/usr/include/x86_64-linux-gnu/bits/thread-shared-types.h, lines 57-60:	N222 -{struct __pthread_internal_slist {   struct __pthread_internal_slist *__next; } ;}-> N223
/usr/include/x86_64-linux-gnu/bits/thread-shared-types.h, lines 57-60:	N223 -{typedef struct __pthread_internal_slist __pthread_slist_t;}-> N224
/usr/include/x86_64-linux-gnu/bits/struct_mutex.h, lines 22-53:	N224 -{struct __pthread_mutex_s {   int __lock;   unsigned int __count;   int __owner;   unsigned int __nusers;   int __kind;   short __spins;   short __elision;   __pthread_list_t __list; } ;}-> N225
/usr/include/x86_64-linux-gnu/bits/struct_rwlock.h, lines 23-55:	N225 -{struct __pthread_rwlock_arch_t {   unsigned int __readers;   unsigned int __writers;   unsigned int __wrphase_futex;   unsigned int __writers_futex;   unsigned int __pad3;   unsigned int __pad4;   int __cur_writer;   int __shared;   signed char __rwelision;   unsigned char __pad1[7];   unsigned long int __pad2;   unsigned int __flags; } ;}-> N226
/usr/include/x86_64-linux-gnu/bits/thread-shared-types.h, lines 94-103:	N226 -{struct __pthread_cond_s {   __atomic_wide_counter __wseq;   __atomic_wide_counter __g1_start;   unsigned int __g_refs[2];   unsigned int __g_size[2];   unsigned int __g1_orig_size;   unsigned int __wrefs;   unsigned int __g_signals[2]; } ;}-> N227
/usr/include/x86_64-linux-gnu/bits/thread-shared-types.h, line 105:	N227 -{typedef unsigned int __tss_t;}-> N228
/usr/include/x86_64-linux-gnu/bits/thread-shared-types.h, line 106:	N228 -{typedef unsigned long int __thrd_t;}-> N229
/usr/include/x86_64-linux-gnu/bits/thread-shared-types.h, lines 108-111:	N229 -{struct __anon_type___once_flag {   int __data; } ;}-> N230
/usr/include/x86_64-linux-gnu/bits/thread-shared-types.h, lines 108-111:	N230 -{typedef struct __anon_type___once_flag __once_flag;}-> N231
/usr/include/x86_64-linux-gnu/bits/pthreadtypes.h, line 27:	N231 -{typedef unsigned long int pthread_t;}-> N232
/usr/include/x86_64-linux-gnu/bits/pthreadtypes.h, lines 32-36:	N232 -{union __anon_type_pthread_mutexattr_t {   char __size[4];   int __align; } ;}-> N233
/usr/include/x86_64-linux-gnu/bits/pthreadtypes.h, lines 32-36:	N233 -{typedef union __anon_type_pthread_mutexattr_t pthread_mutexattr_t;}-> N234
/usr/include/x86_64-linux-gnu/bits/pthreadtypes.h, lines 41-45:	N234 -{union __anon_type_pthread_condattr_t {   char __size[4];   int __align; } ;}-> N235
/usr/include/x86_64-linux-gnu/bits/pthreadtypes.h, lines 41-45:	N235 -{typedef union __anon_type_pthread_mutexattr_t pthread_condattr_t;}-> N236
/usr/include/x86_64-linux-gnu/bits/pthreadtypes.h, line 49:	N236 -{typedef unsigned int pthread_key_t;}-> N237
/usr/include/x86_64-linux-gnu/bits/pthreadtypes.h, line 53:	N237 -{typedef int pthread_once_t;}-> N238
/usr/include/x86_64-linux-gnu/bits/pthreadtypes.h, lines 56-60:	N238 -{union pthread_attr_t {   char __size[56];   long int __align; } ;}-> N239
/usr/include/x86_64-linux-gnu/bits/pthreadtypes.h, line 62:	N239 -{typedef union pthread_attr_t pthread_attr_t;}-> N240
/usr/include/x86_64-linux-gnu/bits/pthreadtypes.h, lines 67-72:	N240 -{union __anon_type_pthread_mutex_t {   struct __pthread_mutex_s __data;   char __size[40];   long int __align; } ;}-> N241
/usr/include/x86_64-linux-gnu/bits/pthreadtypes.h, lines 67-72:	N241 -{typedef union __anon_type_pthread_mutex_t pthread_mutex_t;}-> N242
/usr/include/x86_64-linux-gnu/bits/pthreadtypes.h, lines 75-80:	N242 -{union __anon_type_pthread_cond_t {   struct __pthread_cond_s __data;   char __size[48];   long long int __align; } ;}-> N243
/usr/include/x86_64-linux-gnu/bits/pthreadtypes.h, lines 75-80:	N243 -{typedef union __anon_type_pthread_cond_t pthread_cond_t;}-> N244
/usr/include/x86_64-linux-gnu/bits/pthreadtypes.h, lines 86-91:	N244 -{union __anon_type_pthread_rwlock_t {   struct __pthread_rwlock_arch_t __data;   char __size[56];   long int __align; } ;}-> N245
/usr/include/x86_64-linux-gnu/bits/pthreadtypes.h, lines 86-91:	N245 -{typedef union __anon_type_pthread_rwlock_t pthread_rwlock_t;}-> N246
/usr/include/x86_64-linux-gnu/bits/pthreadtypes.h, lines 93-97:	N246 -{union __anon_type_pthread_rwlockattr_t {   char __size[8];   long int __align; } ;}-> N247
/usr/include/x86_64-linux-gnu/bits/pthreadtypes.h, lines 93-97:	N247 -{typedef union __anon_type_pthread_rwlockattr_t pthread_rwlockattr_t;}-> N248
/usr/include/x86_64-linux-gnu/bits/pthreadtypes.h, line 103:	N248 -{typedef volatile int pthread_spinlock_t;}-> N249
/usr/include/x86_64-linux-gnu/bits/pthreadtypes.h, lines 108-112:	N249 -{union __anon_type_pthread_barrier_t {   char __size[32];   long int __align; } ;}-> N250
/usr/include/x86_64-linux-gnu/bits/pthreadtypes.h, lines 108-112:	N250 -{typedef union __anon_type_pthread_barrier_t pthread_barrier_t;}-> N251
/usr/include/x86_64-linux-gnu/bits/pthreadtypes.h, lines 114-118:	N251 -{union __anon_type_pthread_barrierattr_t {   char __size[4];   int __align; } ;}-> N252
/usr/include/x86_64-linux-gnu/bits/pthreadtypes.h, lines 114-118:	N252 -{typedef union __anon_type_pthread_mutexattr_t pthread_barrierattr_t;}-> N253
/usr/include/stdlib.h, line 402:	N253 -{long int random();}-> N254
/usr/include/stdlib.h, line 405:	N254 -{void srandom(unsigned int __seed);}-> N255
/usr/include/stdlib.h, lines 411-412:	N255 -{char *initstate(unsigned int __seed, char *__statebuf, size_t __statelen);}-> N256
/usr/include/stdlib.h, line 416:	N256 -{char *setstate(char *__statebuf);}-> N257
/usr/include/stdlib.h, lines 424-433:	N257 -{struct random_data {   int32_t *fptr;   int32_t *rptr;   int32_t *state;   int rand_type;   int rand_deg;   int rand_sep;   int32_t *end_ptr; } ;}-> N258
/usr/include/stdlib.h, lines 435-436:	N258 -{int random_r(struct random_data *__buf, int32_t *__result);}-> N259
/usr/include/stdlib.h, lines 438-439:	N259 -{int srandom_r(unsigned int __seed, struct random_data *__buf);}-> N260
/usr/include/stdlib.h, lines 441-444:	N260 -{int initstate_r(unsigned int __seed, char *__statebuf, size_t __statelen, struct random_data *__buf);}-> N261
/usr/include/stdlib.h, lines 446-448:	N261 -{int setstate_r(char *__statebuf, struct random_data *__buf);}-> N262
/usr/include/stdlib.h, line 454:	N262 -{int rand();}-> N263
/usr/include/stdlib.h, line 456:	N263 -{void srand(unsigned int __seed);}-> N264
/usr/include/stdlib.h, line 460:	N264 -{int rand_r(unsigned int *__seed);}-> N265
/usr/include/stdlib.h, line 468:	N265 -{double drand48();}-> N266
/usr/include/stdlib.h, line 469:	N266 -{double erand48(unsigned short int __xsubi[3]);}-> N267
/usr/include/stdlib.h, line 472:	N267 -{long int lrand48();}-> N268
/usr/include/stdlib.h, lines 473-474:	N268 -{long int nrand48(unsigned short int __xsubi[3]);}-> N269
/usr/include/stdlib.h, line 477:	N269 -{long int mrand48();}-> N270
/usr/include/stdlib.h, lines 478-479:	N270 -{long int jrand48(unsigned short int __xsubi[3]);}-> N271
/usr/include/stdlib.h, line 482:	N271 -{void srand48(long int __seedval);}-> N272
/usr/include/stdlib.h, lines 483-484:	N272 -{unsigned short int *seed48(unsigned short int __seed16v[3]);}-> N273
/usr/include/stdlib.h, line 485:	N273 -{void lcong48(unsigned short int __param[7]);}-> N274
/usr/include/stdlib.h, lines 491-499:	N274 -{struct drand48_data {   unsigned short int __x[3];   unsigned short int __old_x[3];   unsigned short int __c;   unsigned short int __init;   unsigned long long int __a; } ;}-> N275
/usr/include/stdlib.h, lines 502-503:	N275 -{int drand48_r(struct drand48_data *__buffer, double *__result);}-> N276
/usr/include/stdlib.h, lines 504-506:	N276 -{int erand48_r(unsigned short int __xsubi[3], struct drand48_data *__buffer, double *__result);}-> N277
/usr/include/stdlib.h, lines 509-511:	N277 -{int lrand48_r(struct drand48_data *__buffer, long int *__result);}-> N278
/usr/include/stdlib.h, lines 512-515:	N278 -{int nrand48_r(unsigned short int __xsubi[3], struct drand48_data *__buffer, long int *__result);}-> N279
/usr/include/stdlib.h, lines 518-520:	N279 -{int mrand48_r(struct drand48_data *__buffer, long int *__result);}-> N280
/usr/include/stdlib.h, lines 521-524:	N280 -{int jrand48_r(unsigned short int __xsubi[3], struct drand48_data *__buffer, long int *__result);}-> N281
/usr/include/stdlib.h, lines 527-528:	N281 -{int srand48_r(long int __seedval, struct drand48_data *__buffer);}-> N282
/usr/include/stdlib.h, lines 530-531:	N282 -{int seed48_r(unsigned short int __seed16v[3], struct drand48_data *__buffer);}-> N283
/usr/include/stdlib.h, lines 533-535:	N283 -{int lcong48_r(unsigned short int __param[7], struct drand48_data *__buffer);}-> N284
/usr/include/stdlib.h, lines 540-541:	N284 -{void *malloc(size_t __size);}-> N285
/usr/include/stdlib.h, lines 543-544:	N285 -{void *calloc(size_t __nmemb, size_t __size);}-> N286
/usr/include/stdlib.h, lines 551-552:	N286 -{void *realloc(void *__ptr, size_t __size);}-> N287
/usr/include/stdlib.h, line 555:	N287 -{void free(void *__ptr);}-> N288
/usr/include/stdlib.h, lines 563-566:	N288 -{void *reallocarray(void *__ptr, size_t __nmemb, size_t __size);}-> N289
/usr/include/alloca.h, line 32:	N289 -{void *alloca(size_t __size);}-> N290
/usr/include/stdlib.h, lines 580-581:	N290 -{void *valloc(size_t __size);}-> N291
/usr/include/stdlib.h, lines 586-587:	N291 -{int posix_memalign(void **__memptr, size_t __alignment, size_t __size);}-> N292
/usr/include/stdlib.h, lines 592-594:	N292 -{void *aligned_alloc(size_t __alignment, size_t __size);}-> N293
/usr/include/stdlib.h, line 598:	N293 -{void abort();}-> N294
/usr/include/stdlib.h, line 602:	N294 -{int atexit(void (*__func)());}-> N295
/usr/include/stdlib.h, line 610:	N295 -{int at_quick_exit(void (*__func)());}-> N296
/usr/include/stdlib.h, lines 617-618:	N296 -{int on_exit(void (*__func)(int __status, void *__arg), void *__arg);}-> N297
/usr/include/stdlib.h, line 624:	N297 -{void exit(int __status);}-> N298
/usr/include/stdlib.h, line 630:	N298 -{void quick_exit(int __status);}-> N299
/usr/include/stdlib.h, line 636:	N299 -{void _Exit(int __status);}-> N300
/usr/include/stdlib.h, line 641:	N300 -{char *getenv(const char *__name);}-> N301
/usr/include/stdlib.h, line 654:	N301 -{int putenv(char *__string);}-> N302
/usr/include/stdlib.h, lines 660-661:	N302 -{int setenv(const char *__name, const char *__value, int __replace);}-> N303
/usr/include/stdlib.h, line 664:	N303 -{int unsetenv(const char *__name);}-> N304
/usr/include/stdlib.h, line 671:	N304 -{int clearenv();}-> N305
/usr/include/stdlib.h, line 682:	N305 -{char *mktemp(char *__template);}-> N306
/usr/include/stdlib.h, line 695:	N306 -{int mkstemp(char *__template);}-> N307
/usr/include/stdlib.h, line 717:	N307 -{int mkstemps(char *__template, int __suffixlen);}-> N308
/usr/include/stdlib.h, line 738:	N308 -{char *mkdtemp(char *__template);}-> N309
/usr/include/stdlib.h, line 791:	N309 -{int system(const char *__command);}-> N310
/usr/include/stdlib.h, lines 808-809:	N310 -{char *realpath(const char *__name, char *__resolved);}-> N311
/usr/include/stdlib.h, line 816:	N311 -{typedef int (*__compar_fn_t)(const void *, const void *);}-> N312
/usr/include/stdlib.h, lines 828-830:	N312 -{void *bsearch(const void *__key, const void *__base, size_t __nmemb, size_t __size, __compar_fn_t __compar);}-> N313
/usr/include/stdlib.h, lines 838-839:	N313 -{void qsort(void *__base, size_t __nmemb, size_t __size, __compar_fn_t __compar);}-> N314
/usr/include/stdlib.h, line 848:	N314 -{int abs(int __x);}-> N315
/usr/include/stdlib.h, line 849:	N315 -{long int labs(long int __x);}-> N316
/usr/include/stdlib.h, lines 852-853:	N316 -{long long int llabs(long long int __x);}-> N317
/usr/include/stdlib.h, lines 860-861:	N317 -{div_t div(int __numer, int __denom);}-> N318
/usr/include/stdlib.h, lines 862-863:	N318 -{ldiv_t ldiv(long int __numer, long int __denom);}-> N319
/usr/include/stdlib.h, lines 866-868:	N319 -{lldiv_t lldiv(long long int __numer, long long int __denom);}-> N320
/usr/include/stdlib.h, lines 880-881:	N320 -{char *ecvt(double __value, int __ndigit, int *__decpt, int *__sign);}-> N321
/usr/include/stdlib.h, lines 886-887:	N321 -{char *fcvt(double __value, int __ndigit, int *__decpt, int *__sign);}-> N322
/usr/include/stdlib.h, lines 892-893:	N322 -{char *gcvt(double __value, int __ndigit, char *__buf);}-> N323
/usr/include/stdlib.h, lines 898-900:	N323 -{char *qecvt(long double __value, int __ndigit, int *__decpt, int *__sign);}-> N324
/usr/include/stdlib.h, lines 901-903:	N324 -{char *qfcvt(long double __value, int __ndigit, int *__decpt, int *__sign);}-> N325
/usr/include/stdlib.h, lines 904-905:	N325 -{char *qgcvt(long double __value, int __ndigit, char *__buf);}-> N326
/usr/include/stdlib.h, lines 910-912:	N326 -{int ecvt_r(double __value, int __ndigit, int *__decpt, int *__sign, char *__buf, size_t __len);}-> N327
/usr/include/stdlib.h, lines 913-915:	N327 -{int fcvt_r(double __value, int __ndigit, int *__decpt, int *__sign, char *__buf, size_t __len);}-> N328
/usr/include/stdlib.h, lines 917-920:	N328 -{int qecvt_r(long double __value, int __ndigit, int *__decpt, int *__sign, char *__buf, size_t __len);}-> N329
/usr/include/stdlib.h, lines 921-924:	N329 -{int qfcvt_r(long double __value, int __ndigit, int *__decpt, int *__sign, char *__buf, size_t __len);}-> N330
/usr/include/stdlib.h, line 930:	N330 -{int mblen(const char *__s, size_t __n);}-> N331
/usr/include/stdlib.h, lines 933-934:	N331 -{int mbtowc(wchar_t *__pwc, const char *__s, size_t __n);}-> N332
/usr/include/stdlib.h, line 937:	N332 -{int wctomb(char *__s, wchar_t __wchar);}-> N333
/usr/include/stdlib.h, lines 941-943:	N333 -{size_t mbstowcs(wchar_t *__pwcs, const char *__s, size_t __n);}-> N334
/usr/include/stdlib.h, lines 945-949:	N334 -{size_t wcstombs(char *__s, const wchar_t *__pwcs, size_t __n);}-> N335
/usr/include/stdlib.h, line 956:	N335 -{int rpmatch(const char *__response);}-> N336
/usr/include/stdlib.h, lines 967-970:	N336 -{int getsubopt(char **__optionp, char * const *__tokens, char **__valuep);}-> N337
/usr/include/stdlib.h, lines 1013-1014:	N337 -{int getloadavg(double __loadavg[], int __nelem);}-> N338
lines 4-6:	N338 -{void assume(int cond);}-> N339
lines 8-25:	N339 -{int main();}-> N340
none:	N340 -{Function start dummy edge}-> N38
line 10:	N38 -{int local_18;}-> N39
line 11:	N39 -{int local_14;}-> N40
line 12:	N40 -{int sn;}-> N41
line 13:	N41 -{int i;}-> N42
line 15:	N42 -{local_18 = 0;}-> N43
	local_18 == 0;
line 16:	N43 -{for}-> N44
lines 16-20:	N44 -{local_14 = 1;}-> N45
	local_14 == 1;
line 16:	N45 -{[local_14 < 9]}-> N47
	local_14 == 1;
	local_14 == 1;
line 17:	N47 -{[local_14 < 4]}-> N50
	local_14 == 1;
	local_14 == 1;
line 18:	N50 -{local_18 = local_18 + 2;}-> N51
	local_18 == 2;
none:	N51 -{}-> N49
none:	N49 -{}-> N46
lines 16-20:	N46 -{local_14 = local_14 + 1;}-> N45
	local_14 == 2;
line 16:	N45 -{[local_14 < 9]}-> N47
	local_14 == 2;
	local_14 == 2;
line 17:	N47 -{[local_14 < 4]}-> N50
	local_14 == 2;
	local_14 == 2;
line 18:	N50 -{local_18 = local_18 + 2;}-> N51
	local_18 == 4;
none:	N51 -{}-> N49
none:	N49 -{}-> N46
lines 16-20:	N46 -{local_14 = local_14 + 1;}-> N45
	local_14 == 3;
line 16:	N45 -{[local_14 < 9]}-> N47
	local_14 == 3;
	local_14 == 3;
line 17:	N47 -{[local_14 < 4]}-> N50
	local_14 == 3;
	local_14 == 3;
line 18:	N50 -{local_18 = local_18 + 2;}-> N51
	local_18 == 6;
none:	N51 -{}-> N49
none:	N49 -{}-> N46
lines 16-20:	N46 -{local_14 = local_14 + 1;}-> N45
	local_14 == 4;
line 16:	N45 -{[local_14 < 9]}-> N47
	local_14 == 4;
	local_14 == 4;
line 17:	N47 -{[!(local_14 < 4)]}-> N49
	local_14 == 4;
	local_14 == 4;
none:	N49 -{}-> N46
lines 16-20:	N46 -{local_14 = local_14 + 1;}-> N45
	local_14 == 5;
line 16:	N45 -{[local_14 < 9]}-> N47
	local_14 == 5;
	local_14 == 5;
line 17:	N47 -{[!(local_14 < 4)]}-> N49
	local_14 == 5;
	local_14 == 5;
none:	N49 -{}-> N46
lines 16-20:	N46 -{local_14 = local_14 + 1;}-> N45
	local_14 == 6;
line 16:	N45 -{[local_14 < 9]}-> N47
	local_14 == 6;
	local_14 == 6;
line 17:	N47 -{[!(local_14 < 4)]}-> N49
	local_14 == 6;
	local_14 == 6;
none:	N49 -{}-> N46
lines 16-20:	N46 -{local_14 = local_14 + 1;}-> N45
	local_14 == 7;
line 16:	N45 -{[local_14 < 9]}-> N47
	local_14 == 7;
	local_14 == 7;
line 17:	N47 -{[!(local_14 < 4)]}-> N49
	local_14 == 7;
	local_14 == 7;
none:	N49 -{}-> N46
lines 16-20:	N46 -{local_14 = local_14 + 1;}-> N45
	local_14 == 8;
line 16:	N45 -{[local_14 < 9]}-> N47
	local_14 == 8;
	local_14 == 8;
line 17:	N47 -{[!(local_14 < 4)]}-> N49
	local_14 == 8;
	local_14 == 8;
none:	N49 -{}-> N46
lines 16-20:	N46 -{local_14 = local_14 + 1;}-> N45
	local_14 == 9;
line 16:	N45 -{[!(local_14 < 9)]}-> N48
	local_14 == 9;
	local_14 == 9;
line 21:	N48 -{[local_18 != 16]}-> N54
	local_18 == 6;
	local_18 == 6;
line 21:	N54 -{[local_18 != 0]}-> N53
	local_18 == 6;
	local_18 == 6;
line 22:	N53 -{int __CPAchecker_TMP_2;}-> N55
line 22:	N55 -{}-> N57
line 22:	N57 -{__CPAchecker_TMP_2 = 0;}-> N59
line 22:	N59 -{4UL;}-> N60
line 22:	N60 -{}-> N63
line 22:	N63 -{__assert_fail("0 && \"Assertion failed: sn==SIZE*a || sn == 0\"", "/home/zyl/biVerify/CPA_DATA2/C/F/llmfix/realOutput/iterationTry/sum04-1_process_dc_iter1.c", 22, "__PRETTY_FUNCTION__");}-> N342
